Route #1: 9 62 61 30 57 3
Route #2: 60 64 40 34 6 36 42 44
Route #3: 53 39 4 14 50 46
Route #4: 11 35 49 1 19 20
Route #5: 7 59 8 23 37 65
Route #6: 17 38 29 24 32 51 16
Route #7: 43 10 27 41 66 2 26 47
Route #8: 33 18 31 45 52 22 55 15
Route #9: 5 56 54 21 25 48 63
Route #10: 28 13 58 12
Cost 1112